PARAMETER_FILE = ./image_ll.par
Reading PROBLEM_FILE: "image_ll.tsp" ... done
ASCENT_CANDIDATES = 50
BACKBONE_TRIALS = 0
BACKTRACKING = NO
# CANDIDATE_FILE =
CANDIDATE_SET_TYPE = ALPHA
# EDGE_FILE =
EXCESS = 6.0562e-05
EXTRA_CANDIDATES = 0 
EXTRA_CANDIDATE_SET_TYPE = QUADRANT
GAIN23 = YES
GAIN_CRITERION = YES
INITIAL_PERIOD = 1000
INITIAL_STEP_SIZE = 1
INITIAL_TOUR_ALGORITHM = WALK
# INITIAL_TOUR_FILE = 
INITIAL_TOUR_FRACTION = 1.000
# INPUT_TOUR_FILE = 
KICK_TYPE = 0
KICKS = 1
# MAX_BREADTH =
MAX_CANDIDATES = 0 
MAX_SWAPS = 16512
MAX_TRIALS = 2
# MERGE_TOUR_FILE =
MOVE_TYPE = 5
NONSEQUENTIAL_MOVE_TYPE = 9
# OPTIMUM =
# OUTPUT_TOUR_FILE = 
PATCHING_A = 2 
PATCHING_C = 3 
# PI_FILE = 
POPMUSIC_INITIAL_TOUR = NO
POPMUSIC_MAX_NEIGHBORS = 5
POPMUSIC_SAMPLE_SIZE = 10
POPMUSIC_SOLUTIONS = 50
POPMUSIC_TRIALS = 1
# POPULATION_SIZE = 0
PRECISION = 100
PROBLEM_FILE = image_ll.tsp
RECOMBINATION = IPT
RESTRICTED_SEARCH = YES
RUNS = 2
SEED = 1
STOP_AT_OPTIMUM = YES
SUBGRADIENT = YES
# SUBPROBLEM_SIZE =
# SUBPROBLEM_TOUR_FILE = 
SUBSEQUENT_MOVE_TYPE = 5
SUBSEQUENT_PATCHING = YES
# TIME_LIMIT =
TOUR_FILE = tour_ll
TRACE_LEVEL = 1

Lower bound = 18642140.1, Ascent time = 26.58 sec.
Cand.min = 5, Cand.avg = 13.8, Cand.max = 14
Preprocessing time = 26.61 sec.
* 1: Cost = 18655984, Time = 134.81 sec. 
Writing TOUR_FILE: "tour_ll" ... done
Run 1: Cost = 18655984, Time = 248.75 sec. 

* 1: Cost = 18655506, Time = 175.49 sec. 
* 2: Cost = 18655483, Time = 277.30 sec. 
Writing TOUR_FILE: "tour_ll" ... done
Run 2: Cost = 18655483, Time = 277.31 sec. 

Successes/Runs = 0/2
Cost.min = 18655483, Cost.avg = 18655733.50, Cost.max = 18655984
Gap.min = 0.0000%, Gap.avg = 0.0013%, Gap.max = 0.0027%
Trials.min = 2, Trials.avg = 2.0, Trials.max = 2
Time.min = 248.75 sec., Time.avg = 263.03 sec., Time.max = 277.31 sec.
Time.total = 552.76 sec.
